NAME : random995710
COMMENT: random generated with id 995710
TYPE : TSP
DIMENSION : 10
EDGE_WEIGHT_TYPE : EUC_2D
NODE_COORD_SECTION
1 2.033564 0.838000
2 7.013613 16.291757
3 5.834490 11.810877
4 14.313995 4.498197
5 2.178627 7.915919
6 6.068802 6.802868
7 15.621354 11.771965
8 9.460348 2.498593
9 10.717011 16.292944
10 13.837967 10.137302
EOF
